============================[ Problem Statistics ]=============================|                                                                             ||  Number of variables:          4242                                         ||  Number of clauses:           10335                                         ||  Parse time:                   0.72 s                                       ||                                                                             |============================[ Search Statistics ]==============================| Conflicts |          ORIGINAL         |          LEARNT          | Progress ||           |    Vars  Clauses Literals |    Limit  Clauses Lit/Cl |          |===============================================================================|       100 |    1591     6540  1152541 |     2398      100     53 | 62.501 % ||       250 |    1591     6540  1152541 |     2637      250     75 | 62.495 % |===============================================================================restarts              : 3conflicts             : 392            (360 /sec)decisions             : 656            (0.00 % random) (602 /sec)propagations          : 12038          (11044 /sec)conflict literals     : 32427          (94.56 % deleted)CPU time              : 1.09 sSATISFIABLE